src/prevOutput/loop_lit.gcnr2008.txt
All SA threads failed to converge after3Z3 runs
